0 3054
1 3052
14 3012
27 2997
37 2970
41 2924
43 2913
44 2910
66 2909
88 2903
89 2900
91 2896
98 2891
100 2889
104 2871
105 2852
114 2823
133 2790
134 2787
145 2782
181 2780
726 2775
835 2763
859 2748
1172 2745
2693 2741
2704 2724
